
Gurobi 9.5.1 (mac64[x86]) logging started Wed Jun  8 15:58:37 2022

Set parameter LogFile to value "/Users/keyvanmajd/Documents/GitHub/NNRepLayer_v2/demos/examples/tc7_walking_example/repair_phase_constraint/repair_net/logs/opt_log_6_8_2022_15_57_54.log"
Gurobi Optimizer version 9.5.1 build v9.5.1rc2 (mac64[x86])
Thread count: 4 physical cores, 8 logical processors, using up to 8 threads
Optimize a model with 336 rows, 124 columns and 1144 nonzeros
Model fingerprint: 0xaa98339d
Model has 91 quadratic objective terms
Coefficient statistics:
  Matrix range     [4e-03, 1e+01]
  Objective range  [5e-02, 5e+00]
  QObjective range [2e-01, 2e+00]
  Bounds range     [1e+01, 1e+02]
  RHS range        [5e-04, 2e+01]
Presolve removed 205 rows and 13 columns
Presolve time: 0.01s
Presolved: 131 rows, 111 columns, 921 nonzeros
Presolved model has 91 quadratic objective terms
Ordering time: 0.00s

Barrier statistics:
 AA' NZ     : 6.423e+03
 Factor NZ  : 7.680e+03
 Factor Ops : 5.695e+05 (less than 1 second per iteration)
 Threads    : 1

                  Objective                Residual
Iter       Primal          Dual         Primal    Dual     Compl     Time
   0   4.02389998e+07 -4.09828352e+07  6.54e+03 8.17e+02  8.83e+05     0s
   1   1.45354480e+07 -1.53546981e+07  3.86e+03 4.82e+02  5.66e+05     0s
   2   1.45042965e+04 -1.22909175e+06  1.18e+02 1.47e+01  2.59e+04     0s
   3   9.24930595e+02 -8.29790865e+05  2.02e+01 2.53e+00  6.05e+03     0s
   4   5.77347690e+02 -4.80036903e+05  7.02e+00 8.77e-01  2.80e+03     0s
   5   6.15721265e+02 -2.16491732e+05  3.68e+00 4.60e-01  1.57e+03     0s
   6   6.64877531e+02  3.18434678e+05  2.91e+00 3.63e-01  1.27e+03     0s
   7   6.82308700e+02  1.52120467e+06  2.79e+00 3.48e-01  1.28e+03     0s
   8   6.92452091e+02  2.64565852e+06  2.75e+00 3.43e-01  1.23e+03     0s
   9   6.89370976e+02  6.45892001e+06  2.73e+00 3.41e-01  1.18e+03     0s
  10   1.00619338e+09 -1.00991716e+09  3.27e+04 4.07e+03  2.20e+07     0s
  11   1.67996343e+06 -7.87859115e+06  1.25e+03 1.55e+02  1.13e+06     0s
  12   1.36847078e+03 -5.83715485e+06  2.65e+01 3.30e+00  4.46e+04     0s
  13   6.19768635e+02 -3.19726376e+06  7.56e+00 9.41e-01  1.81e+04     0s
  14   6.25511560e+02 -1.49727873e+06  3.88e+00 4.83e-01  9.95e+03     0s
  15   6.68041431e+02 -4.98888073e+05  3.14e+00 3.91e-01  8.24e+03     0s
  16   6.67378086e+02  1.38468664e+06  2.90e+00 3.60e-01  7.39e+03     0s
  17   6.75378367e+02  4.41416615e+06  2.79e+00 3.47e-01  7.03e+03     0s
  18   6.91935809e+02  8.99190416e+06  2.75e+00 3.42e-01  6.82e+03     0s
  19   6.86831385e+02  1.54661929e+07  2.74e+00 3.41e-01  6.84e+03     0s
  20   6.88984837e+02  4.87160339e+07  2.71e+00 3.38e-01  6.10e+03     0s
  21   6.88935668e+02  5.87470986e+08  2.71e+00 3.38e-01  6.54e+03     0s
  22   1.00619338e+09 -1.00991716e+09  3.27e+04 4.07e+03  2.20e+07     0s
  23   1.69709911e+04 -2.71603552e+04  1.35e+02 1.53e+01  3.43e+02     0s
  24   3.53537631e+02 -6.30002679e+02  1.35e+01 1.53e+00  5.48e+00     0s
  25   3.49587519e+02  1.61274543e+02  6.59e+00 7.48e-01  3.21e+00     0s
  26   4.37095301e+02  4.93765956e+02  4.20e+00 4.77e-01  2.27e+00     0s
  27   5.07467601e+02  1.52483995e+03  3.45e+00 3.91e-01  3.89e+00     0s
  28   7.41462095e+02  1.18742246e+04  3.53e+00 4.01e-01  5.89e+01     0s
  29   5.40225460e+02  4.96907453e+04  3.76e+00 4.26e-01  1.79e+03     0s
  30   5.08560310e+02  1.58525656e+06  6.30e+00 7.14e-01  1.41e+06     0s
  31*  5.08563420e+02  7.79116412e+08  7.18e-04 1.16e-04  5.84e-01     0s
  32*  5.08563420e+02  7.77357923e+11  7.18e-07 1.16e-07  5.84e-04     0s
  33*  5.08563420e+02  7.78130237e+14  7.18e-10 1.02e-08  5.85e-07     0s
  34*  5.08563420e+02  7.78907583e+17  7.18e-13 1.11e-08  5.86e-10     0s

Barrier performed 34 iterations in 0.03 seconds (0.01 work units)
Infeasible model

